; Benchmark for LTL-sketching problem
(set-logic QF_UF)
(set-info :status unknown)
(declare-fun z_1_0 () Bool)
(declare-fun z_0_0 () Bool)
(declare-fun z_1_12 () Bool)
(declare-fun z_1_11 () Bool)
(declare-fun z_1_10 () Bool)
(declare-fun z_1_9 () Bool)
(declare-fun z_1_8 () Bool)
(declare-fun z_1_7 () Bool)
(declare-fun z_1_6 () Bool)
(declare-fun z_1_5 () Bool)
(declare-fun z_1_4 () Bool)
(declare-fun z_1_3 () Bool)
(declare-fun z_1_2 () Bool)
(declare-fun z_1_1 () Bool)
(declare-fun z_0_1 () Bool)
(declare-fun z_0_2 () Bool)
(declare-fun z_0_3 () Bool)
(declare-fun z_0_4 () Bool)
(declare-fun z_0_5 () Bool)
(declare-fun z_0_6 () Bool)
(declare-fun z_0_7 () Bool)
(declare-fun z_0_8 () Bool)
(declare-fun z_0_9 () Bool)
(declare-fun z_0_10 () Bool)
(declare-fun z_0_11 () Bool)
(declare-fun z_0_12 () Bool)
(declare-fun z_1_24 () Bool)
(declare-fun z_1_23 () Bool)
(declare-fun z_1_22 () Bool)
(declare-fun z_1_21 () Bool)
(declare-fun z_1_20 () Bool)
(declare-fun z_1_19 () Bool)
(declare-fun z_1_18 () Bool)
(declare-fun z_1_17 () Bool)
(declare-fun z_1_16 () Bool)
(declare-fun z_1_15 () Bool)
(declare-fun z_1_14 () Bool)
(declare-fun z_1_13 () Bool)
(declare-fun z_0_13 () Bool)
(declare-fun z_0_14 () Bool)
(declare-fun z_0_15 () Bool)
(declare-fun z_0_16 () Bool)
(declare-fun z_0_17 () Bool)
(declare-fun z_0_18 () Bool)
(declare-fun z_0_19 () Bool)
(declare-fun z_0_20 () Bool)
(declare-fun z_0_21 () Bool)
(declare-fun z_0_22 () Bool)
(declare-fun z_0_23 () Bool)
(declare-fun z_0_24 () Bool)
(declare-fun z_1_36 () Bool)
(declare-fun z_1_35 () Bool)
(declare-fun z_1_34 () Bool)
(declare-fun z_1_33 () Bool)
(declare-fun z_1_32 () Bool)
(declare-fun z_1_31 () Bool)
(declare-fun z_1_30 () Bool)
(declare-fun z_1_29 () Bool)
(declare-fun z_1_28 () Bool)
(declare-fun z_1_27 () Bool)
(declare-fun z_1_26 () Bool)
(declare-fun z_1_25 () Bool)
(declare-fun z_0_25 () Bool)
(declare-fun z_0_26 () Bool)
(declare-fun z_0_27 () Bool)
(declare-fun z_0_28 () Bool)
(declare-fun z_0_29 () Bool)
(declare-fun z_0_30 () Bool)
(declare-fun z_0_31 () Bool)
(declare-fun z_0_32 () Bool)
(declare-fun z_0_33 () Bool)
(declare-fun z_0_34 () Bool)
(declare-fun z_0_35 () Bool)
(declare-fun z_0_36 () Bool)
(declare-fun z_1_49 () Bool)
(declare-fun z_1_48 () Bool)
(declare-fun z_1_47 () Bool)
(declare-fun z_1_46 () Bool)
(declare-fun z_1_45 () Bool)
(declare-fun z_1_44 () Bool)
(declare-fun z_1_43 () Bool)
(declare-fun z_1_42 () Bool)
(declare-fun z_1_41 () Bool)
(declare-fun z_1_40 () Bool)
(declare-fun z_1_39 () Bool)
(declare-fun z_1_38 () Bool)
(declare-fun z_1_37 () Bool)
(declare-fun z_0_37 () Bool)
(declare-fun z_0_38 () Bool)
(declare-fun z_0_39 () Bool)
(declare-fun z_0_40 () Bool)
(declare-fun z_0_41 () Bool)
(declare-fun z_0_42 () Bool)
(declare-fun z_0_43 () Bool)
(declare-fun z_0_44 () Bool)
(declare-fun z_0_45 () Bool)
(declare-fun z_0_46 () Bool)
(declare-fun z_0_47 () Bool)
(declare-fun z_0_48 () Bool)
(declare-fun z_0_49 () Bool)
(declare-fun z_1_55 () Bool)
(declare-fun z_1_54 () Bool)
(declare-fun z_1_53 () Bool)
(declare-fun z_1_52 () Bool)
(declare-fun z_1_51 () Bool)
(declare-fun z_1_50 () Bool)
(declare-fun z_0_50 () Bool)
(declare-fun z_0_51 () Bool)
(declare-fun z_0_52 () Bool)
(declare-fun z_0_53 () Bool)
(declare-fun z_0_54 () Bool)
(declare-fun z_0_55 () Bool)
(declare-fun z_1_69 () Bool)
(declare-fun z_1_68 () Bool)
(declare-fun z_1_67 () Bool)
(declare-fun z_1_66 () Bool)
(declare-fun z_1_65 () Bool)
(declare-fun z_1_64 () Bool)
(declare-fun z_1_63 () Bool)
(declare-fun z_1_62 () Bool)
(declare-fun z_1_61 () Bool)
(declare-fun z_1_60 () Bool)
(declare-fun z_1_59 () Bool)
(declare-fun z_1_58 () Bool)
(declare-fun z_1_57 () Bool)
(declare-fun z_1_56 () Bool)
(declare-fun z_0_56 () Bool)
(declare-fun z_0_57 () Bool)
(declare-fun z_0_58 () Bool)
(declare-fun z_0_59 () Bool)
(declare-fun z_0_60 () Bool)
(declare-fun z_0_61 () Bool)
(declare-fun z_0_62 () Bool)
(declare-fun z_0_63 () Bool)
(declare-fun z_0_64 () Bool)
(declare-fun z_0_65 () Bool)
(declare-fun z_0_66 () Bool)
(declare-fun z_0_67 () Bool)
(declare-fun z_0_68 () Bool)
(declare-fun z_0_69 () Bool)
(declare-fun z_1_82 () Bool)
(declare-fun z_1_81 () Bool)
(declare-fun z_1_80 () Bool)
(declare-fun z_1_79 () Bool)
(declare-fun z_1_78 () Bool)
(declare-fun z_1_77 () Bool)
(declare-fun z_1_76 () Bool)
(declare-fun z_1_75 () Bool)
(declare-fun z_1_74 () Bool)
(declare-fun z_1_73 () Bool)
(declare-fun z_1_72 () Bool)
(declare-fun z_1_71 () Bool)
(declare-fun z_1_70 () Bool)
(declare-fun z_0_70 () Bool)
(declare-fun z_0_71 () Bool)
(declare-fun z_0_72 () Bool)
(declare-fun z_0_73 () Bool)
(declare-fun z_0_74 () Bool)
(declare-fun z_0_75 () Bool)
(declare-fun z_0_76 () Bool)
(declare-fun z_0_77 () Bool)
(declare-fun z_0_78 () Bool)
(declare-fun z_0_79 () Bool)
(declare-fun z_0_80 () Bool)
(declare-fun z_0_81 () Bool)
(declare-fun z_0_82 () Bool)
(declare-fun z_1_97 () Bool)
(declare-fun z_1_96 () Bool)
(declare-fun z_1_95 () Bool)
(declare-fun z_1_94 () Bool)
(declare-fun z_1_93 () Bool)
(declare-fun z_1_92 () Bool)
(declare-fun z_1_91 () Bool)
(declare-fun z_1_90 () Bool)
(declare-fun z_1_89 () Bool)
(declare-fun z_1_88 () Bool)
(declare-fun z_1_87 () Bool)
(declare-fun z_1_86 () Bool)
(declare-fun z_1_85 () Bool)
(declare-fun z_1_84 () Bool)
(declare-fun z_1_83 () Bool)
(declare-fun z_0_83 () Bool)
(declare-fun z_0_84 () Bool)
(declare-fun z_0_85 () Bool)
(declare-fun z_0_86 () Bool)
(declare-fun z_0_87 () Bool)
(declare-fun z_0_88 () Bool)
(declare-fun z_0_89 () Bool)
(declare-fun z_0_90 () Bool)
(declare-fun z_0_91 () Bool)
(declare-fun z_0_92 () Bool)
(declare-fun z_0_93 () Bool)
(declare-fun z_0_94 () Bool)
(declare-fun z_0_95 () Bool)
(declare-fun z_0_96 () Bool)
(declare-fun z_0_97 () Bool)
(declare-fun z_1_103 () Bool)
(declare-fun z_1_102 () Bool)
(declare-fun z_1_101 () Bool)
(declare-fun z_1_100 () Bool)
(declare-fun z_1_99 () Bool)
(declare-fun z_1_98 () Bool)
(declare-fun z_0_98 () Bool)
(declare-fun z_0_99 () Bool)
(declare-fun z_0_100 () Bool)
(declare-fun z_0_101 () Bool)
(declare-fun z_0_102 () Bool)
(declare-fun z_0_103 () Bool)
(declare-fun z_1_118 () Bool)
(declare-fun z_1_117 () Bool)
(declare-fun z_1_116 () Bool)
(declare-fun z_1_115 () Bool)
(declare-fun z_1_114 () Bool)
(declare-fun z_1_113 () Bool)
(declare-fun z_1_112 () Bool)
(declare-fun z_1_111 () Bool)
(declare-fun z_1_110 () Bool)
(declare-fun z_1_109 () Bool)
(declare-fun z_1_108 () Bool)
(declare-fun z_1_107 () Bool)
(declare-fun z_1_106 () Bool)
(declare-fun z_1_105 () Bool)
(declare-fun z_1_104 () Bool)
(declare-fun z_0_104 () Bool)
(declare-fun z_0_105 () Bool)
(declare-fun z_0_106 () Bool)
(declare-fun z_0_107 () Bool)
(declare-fun z_0_108 () Bool)
(declare-fun z_0_109 () Bool)
(declare-fun z_0_110 () Bool)
(declare-fun z_0_111 () Bool)
(declare-fun z_0_112 () Bool)
(declare-fun z_0_113 () Bool)
(declare-fun z_0_114 () Bool)
(declare-fun z_0_115 () Bool)
(declare-fun z_0_116 () Bool)
(declare-fun z_0_117 () Bool)
(declare-fun z_0_118 () Bool)
(assert
 (= z_0_0 (and z_1_0)))
(assert
 (let (($x41 (and z_1_1 z_1_2 z_1_3 z_1_4 z_1_5 z_1_6 z_1_7 z_1_8 z_1_9 z_1_10 z_1_11 z_1_12)))
 (= z_0_1 $x41)))
(assert
 (let (($x44 (and z_1_2 z_1_3 z_1_4 z_1_5 z_1_6 z_1_7 z_1_8 z_1_9 z_1_10 z_1_11 z_1_12)))
 (= z_0_2 $x44)))
(assert
 (let (($x47 (and z_1_3 z_1_4 z_1_5 z_1_6 z_1_7 z_1_8 z_1_9 z_1_10 z_1_11 z_1_12)))
 (= z_0_3 $x47)))
(assert
 (let (($x50 (and z_1_4 z_1_5 z_1_6 z_1_7 z_1_8 z_1_9 z_1_10 z_1_11 z_1_12)))
 (= z_0_4 $x50)))
(assert
 (let (($x53 (and z_1_5 z_1_6 z_1_7 z_1_8 z_1_9 z_1_10 z_1_11 z_1_12)))
 (= z_0_5 $x53)))
(assert
 (= z_0_6 (and z_1_6 z_1_7 z_1_8 z_1_9 z_1_10 z_1_11 z_1_12)))
(assert
 (= z_0_7 (and z_1_7 z_1_8 z_1_9 z_1_10 z_1_11 z_1_12 z_1_6)))
(assert
 (= z_0_8 (and z_1_8 z_1_9 z_1_10 z_1_11 z_1_12 z_1_6 z_1_7)))
(assert
 (= z_0_9 (and z_1_9 z_1_10 z_1_11 z_1_12 z_1_6 z_1_7 z_1_8)))
(assert
 (= z_0_10 (and z_1_10 z_1_11 z_1_12 z_1_6 z_1_7 z_1_8 z_1_9)))
(assert
 (= z_0_11 (and z_1_11 z_1_12 z_1_6 z_1_7 z_1_8 z_1_9 z_1_10)))
(assert
 (= z_0_12 (and z_1_12 z_1_6 z_1_7 z_1_8 z_1_9 z_1_10 z_1_11)))
(assert
 (let (($x89 (and z_1_13 z_1_14 z_1_15 z_1_16 z_1_17 z_1_18 z_1_19 z_1_20 z_1_21 z_1_22 z_1_23 z_1_24)))
 (= z_0_13 $x89)))
(assert
 (let (($x92 (and z_1_14 z_1_15 z_1_16 z_1_17 z_1_18 z_1_19 z_1_20 z_1_21 z_1_22 z_1_23 z_1_24)))
 (= z_0_14 $x92)))
(assert
 (let (($x95 (and z_1_15 z_1_16 z_1_17 z_1_18 z_1_19 z_1_20 z_1_21 z_1_22 z_1_23 z_1_24)))
 (= z_0_15 $x95)))
(assert
 (let (($x98 (and z_1_16 z_1_17 z_1_18 z_1_19 z_1_20 z_1_21 z_1_22 z_1_23 z_1_24)))
 (= z_0_16 $x98)))
(assert
 (let (($x101 (and z_1_17 z_1_18 z_1_19 z_1_20 z_1_21 z_1_22 z_1_23 z_1_24)))
 (= z_0_17 $x101)))
(assert
 (= z_0_18 (and z_1_18 z_1_19 z_1_20 z_1_21 z_1_22 z_1_23 z_1_24)))
(assert
 (= z_0_19 (and z_1_19 z_1_20 z_1_21 z_1_22 z_1_23 z_1_24)))
(assert
 (= z_0_20 (and z_1_20 z_1_21 z_1_22 z_1_23 z_1_24 z_1_19)))
(assert
 (= z_0_21 (and z_1_21 z_1_22 z_1_23 z_1_24 z_1_19 z_1_20)))
(assert
 (= z_0_22 (and z_1_22 z_1_23 z_1_24 z_1_19 z_1_20 z_1_21)))
(assert
 (= z_0_23 (and z_1_23 z_1_24 z_1_19 z_1_20 z_1_21 z_1_22)))
(assert
 (= z_0_24 (and z_1_24 z_1_19 z_1_20 z_1_21 z_1_22 z_1_23)))
(assert
 (let (($x137 (and z_1_25 z_1_26 z_1_27 z_1_28 z_1_29 z_1_30 z_1_31 z_1_32 z_1_33 z_1_34 z_1_35 z_1_36)))
 (= z_0_25 $x137)))
(assert
 (let (($x140 (and z_1_26 z_1_27 z_1_28 z_1_29 z_1_30 z_1_31 z_1_32 z_1_33 z_1_34 z_1_35 z_1_36)))
 (= z_0_26 $x140)))
(assert
 (let (($x143 (and z_1_27 z_1_28 z_1_29 z_1_30 z_1_31 z_1_32 z_1_33 z_1_34 z_1_35 z_1_36)))
 (= z_0_27 $x143)))
(assert
 (let (($x146 (and z_1_28 z_1_29 z_1_30 z_1_31 z_1_32 z_1_33 z_1_34 z_1_35 z_1_36)))
 (= z_0_28 $x146)))
(assert
 (let (($x149 (and z_1_29 z_1_30 z_1_31 z_1_32 z_1_33 z_1_34 z_1_35 z_1_36)))
 (= z_0_29 $x149)))
(assert
 (let (($x152 (and z_1_30 z_1_31 z_1_32 z_1_33 z_1_34 z_1_35 z_1_36 z_1_29)))
 (= z_0_30 $x152)))
(assert
 (let (($x155 (and z_1_31 z_1_32 z_1_33 z_1_34 z_1_35 z_1_36 z_1_29 z_1_30)))
 (= z_0_31 $x155)))
(assert
 (let (($x158 (and z_1_32 z_1_33 z_1_34 z_1_35 z_1_36 z_1_29 z_1_30 z_1_31)))
 (= z_0_32 $x158)))
(assert
 (let (($x161 (and z_1_33 z_1_34 z_1_35 z_1_36 z_1_29 z_1_30 z_1_31 z_1_32)))
 (= z_0_33 $x161)))
(assert
 (let (($x164 (and z_1_34 z_1_35 z_1_36 z_1_29 z_1_30 z_1_31 z_1_32 z_1_33)))
 (= z_0_34 $x164)))
(assert
 (let (($x167 (and z_1_35 z_1_36 z_1_29 z_1_30 z_1_31 z_1_32 z_1_33 z_1_34)))
 (= z_0_35 $x167)))
(assert
 (let (($x170 (and z_1_36 z_1_29 z_1_30 z_1_31 z_1_32 z_1_33 z_1_34 z_1_35)))
 (= z_0_36 $x170)))
(assert
 (let (($x186 (and z_1_37 z_1_38 z_1_39 z_1_40 z_1_41 z_1_42 z_1_43 z_1_44 z_1_45 z_1_46 z_1_47 z_1_48 z_1_49)))
 (= z_0_37 $x186)))
(assert
 (let (($x189 (and z_1_38 z_1_39 z_1_40 z_1_41 z_1_42 z_1_43 z_1_44 z_1_45 z_1_46 z_1_47 z_1_48 z_1_49)))
 (= z_0_38 $x189)))
(assert
 (let (($x192 (and z_1_39 z_1_40 z_1_41 z_1_42 z_1_43 z_1_44 z_1_45 z_1_46 z_1_47 z_1_48 z_1_49)))
 (= z_0_39 $x192)))
(assert
 (let (($x195 (and z_1_40 z_1_41 z_1_42 z_1_43 z_1_44 z_1_45 z_1_46 z_1_47 z_1_48 z_1_49)))
 (= z_0_40 $x195)))
(assert
 (let (($x198 (and z_1_41 z_1_42 z_1_43 z_1_44 z_1_45 z_1_46 z_1_47 z_1_48 z_1_49)))
 (= z_0_41 $x198)))
(assert
 (let (($x201 (and z_1_42 z_1_43 z_1_44 z_1_45 z_1_46 z_1_47 z_1_48 z_1_49)))
 (= z_0_42 $x201)))
(assert
 (let (($x204 (and z_1_43 z_1_44 z_1_45 z_1_46 z_1_47 z_1_48 z_1_49 z_1_42)))
 (= z_0_43 $x204)))
(assert
 (let (($x207 (and z_1_44 z_1_45 z_1_46 z_1_47 z_1_48 z_1_49 z_1_42 z_1_43)))
 (= z_0_44 $x207)))
(assert
 (let (($x210 (and z_1_45 z_1_46 z_1_47 z_1_48 z_1_49 z_1_42 z_1_43 z_1_44)))
 (= z_0_45 $x210)))
(assert
 (let (($x213 (and z_1_46 z_1_47 z_1_48 z_1_49 z_1_42 z_1_43 z_1_44 z_1_45)))
 (= z_0_46 $x213)))
(assert
 (let (($x216 (and z_1_47 z_1_48 z_1_49 z_1_42 z_1_43 z_1_44 z_1_45 z_1_46)))
 (= z_0_47 $x216)))
(assert
 (let (($x219 (and z_1_48 z_1_49 z_1_42 z_1_43 z_1_44 z_1_45 z_1_46 z_1_47)))
 (= z_0_48 $x219)))
(assert
 (let (($x222 (and z_1_49 z_1_42 z_1_43 z_1_44 z_1_45 z_1_46 z_1_47 z_1_48)))
 (= z_0_49 $x222)))
(assert
 (let (($x231 (and z_1_50 z_1_51 z_1_52 z_1_53 z_1_54 z_1_55 z_1_32 z_1_33 z_1_34 z_1_35 z_1_36 z_1_29 z_1_30 z_1_31)))
 (= z_0_50 $x231)))
(assert
 (let (($x234 (and z_1_51 z_1_52 z_1_53 z_1_54 z_1_55 z_1_32 z_1_33 z_1_34 z_1_35 z_1_36 z_1_29 z_1_30 z_1_31)))
 (= z_0_51 $x234)))
(assert
 (let (($x237 (and z_1_52 z_1_53 z_1_54 z_1_55 z_1_32 z_1_33 z_1_34 z_1_35 z_1_36 z_1_29 z_1_30 z_1_31)))
 (= z_0_52 $x237)))
(assert
 (let (($x240 (and z_1_53 z_1_54 z_1_55 z_1_32 z_1_33 z_1_34 z_1_35 z_1_36 z_1_29 z_1_30 z_1_31)))
 (= z_0_53 $x240)))
(assert
 (let (($x243 (and z_1_54 z_1_55 z_1_32 z_1_33 z_1_34 z_1_35 z_1_36 z_1_29 z_1_30 z_1_31)))
 (= z_0_54 $x243)))
(assert
 (let (($x246 (and z_1_55 z_1_32 z_1_33 z_1_34 z_1_35 z_1_36 z_1_29 z_1_30 z_1_31)))
 (= z_0_55 $x246)))
(assert
 (let (($x263 (and z_1_56 z_1_57 z_1_58 z_1_59 z_1_60 z_1_61 z_1_62 z_1_63 z_1_64 z_1_65 z_1_66 z_1_67 z_1_68 z_1_69)))
 (= z_0_56 $x263)))
(assert
 (let (($x266 (and z_1_57 z_1_58 z_1_59 z_1_60 z_1_61 z_1_62 z_1_63 z_1_64 z_1_65 z_1_66 z_1_67 z_1_68 z_1_69)))
 (= z_0_57 $x266)))
(assert
 (let (($x269 (and z_1_58 z_1_59 z_1_60 z_1_61 z_1_62 z_1_63 z_1_64 z_1_65 z_1_66 z_1_67 z_1_68 z_1_69)))
 (= z_0_58 $x269)))
(assert
 (let (($x272 (and z_1_59 z_1_60 z_1_61 z_1_62 z_1_63 z_1_64 z_1_65 z_1_66 z_1_67 z_1_68 z_1_69)))
 (= z_0_59 $x272)))
(assert
 (let (($x275 (and z_1_60 z_1_61 z_1_62 z_1_63 z_1_64 z_1_65 z_1_66 z_1_67 z_1_68 z_1_69)))
 (= z_0_60 $x275)))
(assert
 (let (($x278 (and z_1_61 z_1_62 z_1_63 z_1_64 z_1_65 z_1_66 z_1_67 z_1_68 z_1_69)))
 (= z_0_61 $x278)))
(assert
 (let (($x281 (and z_1_62 z_1_63 z_1_64 z_1_65 z_1_66 z_1_67 z_1_68 z_1_69)))
 (= z_0_62 $x281)))
(assert
 (let (($x284 (and z_1_63 z_1_64 z_1_65 z_1_66 z_1_67 z_1_68 z_1_69 z_1_62)))
 (= z_0_63 $x284)))
(assert
 (let (($x287 (and z_1_64 z_1_65 z_1_66 z_1_67 z_1_68 z_1_69 z_1_62 z_1_63)))
 (= z_0_64 $x287)))
(assert
 (let (($x290 (and z_1_65 z_1_66 z_1_67 z_1_68 z_1_69 z_1_62 z_1_63 z_1_64)))
 (= z_0_65 $x290)))
(assert
 (let (($x293 (and z_1_66 z_1_67 z_1_68 z_1_69 z_1_62 z_1_63 z_1_64 z_1_65)))
 (= z_0_66 $x293)))
(assert
 (let (($x296 (and z_1_67 z_1_68 z_1_69 z_1_62 z_1_63 z_1_64 z_1_65 z_1_66)))
 (= z_0_67 $x296)))
(assert
 (let (($x299 (and z_1_68 z_1_69 z_1_62 z_1_63 z_1_64 z_1_65 z_1_66 z_1_67)))
 (= z_0_68 $x299)))
(assert
 (let (($x302 (and z_1_69 z_1_62 z_1_63 z_1_64 z_1_65 z_1_66 z_1_67 z_1_68)))
 (= z_0_69 $x302)))
(assert
 (let (($x318 (and z_1_70 z_1_71 z_1_72 z_1_73 z_1_74 z_1_75 z_1_76 z_1_77 z_1_78 z_1_79 z_1_80 z_1_81 z_1_82)))
 (= z_0_70 $x318)))
(assert
 (let (($x321 (and z_1_71 z_1_72 z_1_73 z_1_74 z_1_75 z_1_76 z_1_77 z_1_78 z_1_79 z_1_80 z_1_81 z_1_82)))
 (= z_0_71 $x321)))
(assert
 (let (($x324 (and z_1_72 z_1_73 z_1_74 z_1_75 z_1_76 z_1_77 z_1_78 z_1_79 z_1_80 z_1_81 z_1_82)))
 (= z_0_72 $x324)))
(assert
 (let (($x327 (and z_1_73 z_1_74 z_1_75 z_1_76 z_1_77 z_1_78 z_1_79 z_1_80 z_1_81 z_1_82)))
 (= z_0_73 $x327)))
(assert
 (let (($x330 (and z_1_74 z_1_75 z_1_76 z_1_77 z_1_78 z_1_79 z_1_80 z_1_81 z_1_82)))
 (= z_0_74 $x330)))
(assert
 (let (($x333 (and z_1_75 z_1_76 z_1_77 z_1_78 z_1_79 z_1_80 z_1_81 z_1_82)))
 (= z_0_75 $x333)))
(assert
 (= z_0_76 (and z_1_76 z_1_77 z_1_78 z_1_79 z_1_80 z_1_81 z_1_82)))
(assert
 (= z_0_77 (and z_1_77 z_1_78 z_1_79 z_1_80 z_1_81 z_1_82)))
(assert
 (= z_0_78 (and z_1_78 z_1_79 z_1_80 z_1_81 z_1_82 z_1_77)))
(assert
 (= z_0_79 (and z_1_79 z_1_80 z_1_81 z_1_82 z_1_77 z_1_78)))
(assert
 (= z_0_80 (and z_1_80 z_1_81 z_1_82 z_1_77 z_1_78 z_1_79)))
(assert
 (= z_0_81 (and z_1_81 z_1_82 z_1_77 z_1_78 z_1_79 z_1_80)))
(assert
 (= z_0_82 (and z_1_82 z_1_77 z_1_78 z_1_79 z_1_80 z_1_81)))
(assert
 (let (($x372 (and z_1_83 z_1_84 z_1_85 z_1_86 z_1_87 z_1_88 z_1_89 z_1_90 z_1_91 z_1_92 z_1_93 z_1_94 z_1_95 z_1_96 z_1_97)))
 (= z_0_83 $x372)))
(assert
 (let (($x375 (and z_1_84 z_1_85 z_1_86 z_1_87 z_1_88 z_1_89 z_1_90 z_1_91 z_1_92 z_1_93 z_1_94 z_1_95 z_1_96 z_1_97)))
 (= z_0_84 $x375)))
(assert
 (let (($x378 (and z_1_85 z_1_86 z_1_87 z_1_88 z_1_89 z_1_90 z_1_91 z_1_92 z_1_93 z_1_94 z_1_95 z_1_96 z_1_97)))
 (= z_0_85 $x378)))
(assert
 (let (($x381 (and z_1_86 z_1_87 z_1_88 z_1_89 z_1_90 z_1_91 z_1_92 z_1_93 z_1_94 z_1_95 z_1_96 z_1_97)))
 (= z_0_86 $x381)))
(assert
 (let (($x384 (and z_1_87 z_1_88 z_1_89 z_1_90 z_1_91 z_1_92 z_1_93 z_1_94 z_1_95 z_1_96 z_1_97)))
 (= z_0_87 $x384)))
(assert
 (let (($x387 (and z_1_88 z_1_89 z_1_90 z_1_91 z_1_92 z_1_93 z_1_94 z_1_95 z_1_96 z_1_97)))
 (= z_0_88 $x387)))
(assert
 (let (($x390 (and z_1_89 z_1_90 z_1_91 z_1_92 z_1_93 z_1_94 z_1_95 z_1_96 z_1_97)))
 (= z_0_89 $x390)))
(assert
 (let (($x393 (and z_1_90 z_1_91 z_1_92 z_1_93 z_1_94 z_1_95 z_1_96 z_1_97)))
 (= z_0_90 $x393)))
(assert
 (let (($x396 (and z_1_91 z_1_92 z_1_93 z_1_94 z_1_95 z_1_96 z_1_97 z_1_90)))
 (= z_0_91 $x396)))
(assert
 (let (($x399 (and z_1_92 z_1_93 z_1_94 z_1_95 z_1_96 z_1_97 z_1_90 z_1_91)))
 (= z_0_92 $x399)))
(assert
 (let (($x402 (and z_1_93 z_1_94 z_1_95 z_1_96 z_1_97 z_1_90 z_1_91 z_1_92)))
 (= z_0_93 $x402)))
(assert
 (let (($x405 (and z_1_94 z_1_95 z_1_96 z_1_97 z_1_90 z_1_91 z_1_92 z_1_93)))
 (= z_0_94 $x405)))
(assert
 (let (($x408 (and z_1_95 z_1_96 z_1_97 z_1_90 z_1_91 z_1_92 z_1_93 z_1_94)))
 (= z_0_95 $x408)))
(assert
 (let (($x411 (and z_1_96 z_1_97 z_1_90 z_1_91 z_1_92 z_1_93 z_1_94 z_1_95)))
 (= z_0_96 $x411)))
(assert
 (let (($x414 (and z_1_97 z_1_90 z_1_91 z_1_92 z_1_93 z_1_94 z_1_95 z_1_96)))
 (= z_0_97 $x414)))
(assert
 (let (($x423 (and z_1_98 z_1_99 z_1_100 z_1_101 z_1_102 z_1_103 z_1_80 z_1_81 z_1_82 z_1_77 z_1_78 z_1_79)))
 (= z_0_98 $x423)))
(assert
 (let (($x426 (and z_1_99 z_1_100 z_1_101 z_1_102 z_1_103 z_1_80 z_1_81 z_1_82 z_1_77 z_1_78 z_1_79)))
 (= z_0_99 $x426)))
(assert
 (let (($x429 (and z_1_100 z_1_101 z_1_102 z_1_103 z_1_80 z_1_81 z_1_82 z_1_77 z_1_78 z_1_79)))
 (= z_0_100 $x429)))
(assert
 (let (($x432 (and z_1_101 z_1_102 z_1_103 z_1_80 z_1_81 z_1_82 z_1_77 z_1_78 z_1_79)))
 (= z_0_101 $x432)))
(assert
 (let (($x435 (and z_1_102 z_1_103 z_1_80 z_1_81 z_1_82 z_1_77 z_1_78 z_1_79)))
 (= z_0_102 $x435)))
(assert
 (= z_0_103 (and z_1_103 z_1_80 z_1_81 z_1_82 z_1_77 z_1_78 z_1_79)))
(assert
 (let (($x456 (and z_1_104 z_1_105 z_1_106 z_1_107 z_1_108 z_1_109 z_1_110 z_1_111 z_1_112 z_1_113 z_1_114 z_1_115 z_1_116 z_1_117 z_1_118)))
 (= z_0_104 $x456)))
(assert
 (let (($x459 (and z_1_105 z_1_106 z_1_107 z_1_108 z_1_109 z_1_110 z_1_111 z_1_112 z_1_113 z_1_114 z_1_115 z_1_116 z_1_117 z_1_118)))
 (= z_0_105 $x459)))
(assert
 (let (($x462 (and z_1_106 z_1_107 z_1_108 z_1_109 z_1_110 z_1_111 z_1_112 z_1_113 z_1_114 z_1_115 z_1_116 z_1_117 z_1_118)))
 (= z_0_106 $x462)))
(assert
 (let (($x465 (and z_1_107 z_1_108 z_1_109 z_1_110 z_1_111 z_1_112 z_1_113 z_1_114 z_1_115 z_1_116 z_1_117 z_1_118)))
 (= z_0_107 $x465)))
(assert
 (let (($x468 (and z_1_108 z_1_109 z_1_110 z_1_111 z_1_112 z_1_113 z_1_114 z_1_115 z_1_116 z_1_117 z_1_118)))
 (= z_0_108 $x468)))
(assert
 (let (($x471 (and z_1_109 z_1_110 z_1_111 z_1_112 z_1_113 z_1_114 z_1_115 z_1_116 z_1_117 z_1_118)))
 (= z_0_109 $x471)))
(assert
 (let (($x474 (and z_1_110 z_1_111 z_1_112 z_1_113 z_1_114 z_1_115 z_1_116 z_1_117 z_1_118)))
 (= z_0_110 $x474)))
(assert
 (let (($x477 (and z_1_111 z_1_112 z_1_113 z_1_114 z_1_115 z_1_116 z_1_117 z_1_118)))
 (= z_0_111 $x477)))
(assert
 (let (($x480 (and z_1_112 z_1_113 z_1_114 z_1_115 z_1_116 z_1_117 z_1_118 z_1_111)))
 (= z_0_112 $x480)))
(assert
 (let (($x483 (and z_1_113 z_1_114 z_1_115 z_1_116 z_1_117 z_1_118 z_1_111 z_1_112)))
 (= z_0_113 $x483)))
(assert
 (let (($x486 (and z_1_114 z_1_115 z_1_116 z_1_117 z_1_118 z_1_111 z_1_112 z_1_113)))
 (= z_0_114 $x486)))
(assert
 (let (($x489 (and z_1_115 z_1_116 z_1_117 z_1_118 z_1_111 z_1_112 z_1_113 z_1_114)))
 (= z_0_115 $x489)))
(assert
 (let (($x492 (and z_1_116 z_1_117 z_1_118 z_1_111 z_1_112 z_1_113 z_1_114 z_1_115)))
 (= z_0_116 $x492)))
(assert
 (let (($x495 (and z_1_117 z_1_118 z_1_111 z_1_112 z_1_113 z_1_114 z_1_115 z_1_116)))
 (= z_0_117 $x495)))
(assert
 (let (($x498 (and z_1_118 z_1_111 z_1_112 z_1_113 z_1_114 z_1_115 z_1_116 z_1_117)))
 (= z_0_118 $x498)))
(assert
 z_0_0)
(assert
 (not z_0_1))
(assert
 (not z_0_13))
(assert
 (not z_0_25))
(assert
 (not z_0_37))
(assert
 (not z_0_50))
(assert
 (not z_0_56))
(assert
 (not z_0_70))
(assert
 (not z_0_83))
(assert
 (not z_0_98))
(assert
 (not z_0_104))
(check-sat)

